* ENCODING=ISO-8859-1
NAME          CPLEX
ROWS
 N  obj1    
 G  c1      
 G  c2      
 G  c3      
 G  c4      
 G  c5      
 G  c6      
 G  c7      
 G  c8      
 G  c9      
 G  c10     
 G  c11     
 G  c12     
 G  c13     
 G  c14     
 G  c15     
 G  c16     
 G  c17     
 G  c18     
 G  c19     
 G  c20     
 G  c21     
 G  c22     
 G  c23     
 G  c24     
 G  c25     
 G  c26     
 G  c27     
 G  c28     
 G  c29     
 G  c30     
 G  c31     
 G  c32     
 G  c33     
 G  c34     
 G  c35     
 G  c36     
 G  c37     
 G  c38     
 G  c39     
 G  c40     
 G  c41     
 G  c42     
 G  c43     
 G  c44     
 G  c45     
 G  c46     
 G  c47     
 G  c48     
 G  c49     
 G  c50     
 G  c51     
 G  c52     
 G  c53     
 G  c54     
 G  c55     
 G  c56     
 G  c57     
 G  c58     
 G  c59     
 G  c60     
COLUMNS
    MARK0000  'MARKER'                 'INTORG'
    x1        obj1                            1
    x1        c2                            766
    x1        c11                           304
    x1        c33                           620
    x2        obj1                            1
    x2        c5                            326
    x2        c50                           884
    x2        c52                           152
    x2        c55                           520
    x3        obj1                            1
    x3        c7                            908
    x3        c33                           237
    x3        c47                           333
    x3        c52                           225
    x3        c55                           396
    x4        obj1                            1
    x4        c6                            974
    x4        c28                           214
    x4        c32                           994
    x4        c36                           968
    x4        c40                           859
    x4        c42                           346
    x4        c49                           626
    x4        c53                           534
    x4        c56                           531
    x4        c60                           823
    x5        obj1                            1
    x5        c1                            466
    x5        c31                           811
    x5        c44                           703
    x5        c50                           424
    x6        obj1                            1
    x6        c3                            175
    x6        c18                           988
    x6        c24                           278
    x6        c25                           795
    x6        c35                           976
    x6        c54                           271
    x7        obj1                            1
    x7        c5                            103
    x7        c10                           535
    x7        c17                           785
    x7        c27                           577
    x7        c29                           724
    x7        c31                           559
    x7        c40                           671
    x7        c46                           551
    x7        c48                           437
    x7        c55                           253
    x7        c56                           817
    x8        obj1                            1
    x8        c23                           366
    x8        c25                           860
    x8        c48                           495
    x8        c50                           825
    x8        c59                           768
    x9        obj1                            1
    x9        c16                           617
    x9        c19                           201
    x9        c23                           781
    x9        c35                           710
    x9        c36                           488
    x9        c38                           723
    x9        c48                           129
    x9        c57                           646
    x9        c59                           374
    x10       obj1                            1
    x10       c16                           371
    x10       c21                           434
    x10       c33                           638
    x10       c54                           262
    x11       obj1                            1
    x11       c2                            537
    x11       c13                           253
    x11       c19                           110
    x11       c23                           400
    x11       c32                           132
    x12       obj1                            1
    x12       c25                           825
    x12       c32                           497
    x12       c38                           399
    x12       c40                           527
    x13       obj1                            1
    x13       c2                            800
    x13       c7                            410
    x13       c20                           635
    x13       c26                           413
    x13       c37                           867
    x13       c41                           177
    x13       c51                           890
    x13       c52                           204
    x13       c60                           297
    x14       obj1                            1
    x14       c2                            748
    x14       c17                           553
    x14       c38                           230
    x14       c44                           595
    x15       obj1                            1
    x15       c6                            787
    x15       c16                           423
    x15       c18                           516
    x15       c19                           342
    x15       c21                           624
    x15       c34                           933
    x15       c46                           278
    x15       c47                           208
    x16       obj1                            1
    x16       c30                           905
    x16       c31                           108
    x17       obj1                            1
    x17       c9                            143
    x17       c21                           269
    x17       c31                           289
    x17       c53                           777
    x17       c57                           441
    x18       obj1                            1
    x18       c4                            354
    x18       c8                            188
    x18       c14                           908
    x18       c22                           589
    x18       c29                           736
    x18       c44                           661
    x18       c53                           406
    x19       obj1                            1
    x19       c5                            658
    x19       c8                            663
    x19       c32                           346
    x19       c33                           940
    x19       c45                           409
    x19       c58                           731
    x20       obj1                            1
    x20       c1                            545
    x20       c11                           104
    x20       c17                           739
    x20       c41                           169
    x20       c42                           693
    x21       obj1                            1
    x21       c23                           140
    x21       c28                           135
    x21       c41                           817
    x21       c50                           230
    x21       c51                           406
    x21       c54                           153
    x22       obj1                            1
    x22       c4                            590
    x22       c10                           564
    x22       c12                           946
    x22       c14                           492
    x22       c20                           340
    x22       c27                           394
    x22       c52                           822
    x23       obj1                            1
    x23       c15                           746
    x23       c19                           284
    x23       c46                           764
    x23       c52                           379
    x24       obj1                            1
    x24       c9                            421
    x24       c28                           428
    x24       c50                           535
    x25       obj1                            1
    x25       c8                            905
    x25       c9                            303
    x25       c37                           941
    x26       obj1                            1
    x26       c7                            615
    x26       c42                           843
    x27       obj1                            1
    x27       c4                            746
    x27       c53                           541
    x28       obj1                            1
    x28       c1                            204
    x28       c20                           102
    x28       c25                           384
    x28       c26                           965
    x28       c27                           835
    x28       c33                           481
    x28       c38                           134
    x28       c59                           897
    x29       obj1                            1
    x29       c7                            111
    x29       c13                           420
    x29       c18                           528
    x29       c35                           161
    x29       c39                           694
    x29       c45                           994
    x29       c51                           942
    x29       c55                           618
    x30       obj1                            1
    x30       c7                            480
    x30       c15                           492
    x30       c37                           973
    x30       c40                           852
    x30       c56                           851
    x31       obj1                            1
    x31       c2                            381
    x31       c4                            522
    x31       c26                           562
    x31       c27                           864
    x31       c29                           689
    x31       c60                           132
    x32       obj1                            1
    x32       c10                           483
    x32       c19                           842
    x32       c31                           177
    x32       c33                           126
    x32       c36                           334
    x32       c44                           302
    x32       c46                           134
    x32       c52                           509
    x32       c58                           603
    x33       obj1                            1
    x33       c7                            551
    x33       c9                            277
    x33       c10                           514
    x33       c19                           176
    x33       c58                           811
    x34       obj1                            1
    x34       c11                           390
    x34       c15                           990
    x34       c20                           786
    x34       c22                           109
    x34       c31                           549
    x34       c35                           938
    x34       c38                           485
    x34       c51                           438
    x35       obj1                            1
    x35       c1                            947
    x35       c19                           856
    x35       c27                           888
    x35       c40                           641
    x35       c43                           166
    x35       c54                           749
    x36       obj1                            1
    x36       c26                           130
    x36       c36                           844
    x37       obj1                            1
    x37       c3                            891
    x37       c14                           903
    x37       c21                           802
    x37       c25                           227
    x37       c29                           555
    x37       c34                           621
    x37       c37                           579
    x37       c49                           211
    x37       c58                           272
    x38       obj1                            1
    x38       c3                            710
    x38       c13                           410
    x38       c41                           890
    x38       c54                           762
    x39       obj1                            1
    x39       c14                           301
    x39       c21                           364
    x39       c26                           971
    x39       c36                           506
    x39       c52                           779
    x39       c57                           647
    x40       obj1                            1
    x40       c1                            769
    x40       c11                           522
    x40       c42                           344
    x40       c56                           539
    x41       obj1                            1
    x41       c9                            370
    x41       c11                           746
    x41       c20                           612
    x42       obj1                            1
    x42       c1                            719
    x42       c16                           461
    x42       c24                           518
    x43       obj1                            1
    x43       c2                            394
    x43       c6                            772
    x43       c9                            841
    x43       c14                           159
    x43       c21                           754
    x43       c25                           913
    x43       c30                           125
    x43       c40                           952
    x43       c42                           311
    x43       c43                           905
    x43       c52                           984
    x43       c58                           699
    x43       c59                           357
    x43       c60                           551
    x44       obj1                            1
    x44       c21                           835
    x44       c29                           428
    x44       c37                           203
    x45       obj1                            1
    x45       c4                            355
    x45       c7                            928
    x45       c9                            968
    x45       c13                           292
    x45       c15                           778
    x45       c22                           287
    x45       c26                           897
    x45       c51                           761
    x45       c52                           682
    x45       c57                           383
    x46       obj1                            1
    x46       c32                           115
    x46       c38                           103
    x46       c43                           902
    x46       c54                           211
    x46       c57                           363
    x46       c60                           566
    x47       obj1                            1
    x47       c2                            419
    x47       c9                            736
    x47       c14                           967
    x47       c17                           821
    x47       c49                           760
    x47       c50                           270
    x47       c59                           294
    x48       obj1                            1
    x48       c6                            482
    x48       c20                           153
    x48       c23                           512
    x48       c25                           532
    x48       c36                           690
    x48       c42                           129
    x48       c44                           577
    x48       c49                           981
    x48       c55                           484
    x48       c59                           344
    x49       obj1                            1
    x49       c1                            855
    x49       c26                           350
    x49       c32                           785
    x49       c36                           153
    x49       c45                           542
    x49       c58                           136
    x50       obj1                            1
    x50       c2                            387
    x50       c26                           270
    x50       c35                           113
    x50       c58                           185
    x51       obj1                            1
    x51       c6                            314
    x51       c7                            532
    x51       c8                            848
    x51       c10                           685
    x51       c25                           447
    x51       c27                           462
    x51       c31                           975
    x51       c34                           186
    x51       c39                           639
    x51       c53                           953
    x51       c55                           829
    x52       obj1                            1
    x52       c16                           652
    x52       c23                           602
    x52       c38                           760
    x52       c46                           193
    x52       c49                           572
    x53       obj1                            1
    x53       c5                            189
    x53       c27                           728
    x53       c29                           989
    x53       c35                           273
    x53       c37                           942
    x53       c42                           685
    x53       c45                           430
    x53       c47                           408
    x53       c53                           514
    x53       c57                           798
    x54       obj1                            1
    x54       c14                           220
    x54       c19                           355
    x54       c22                           597
    x54       c30                           623
    x54       c39                           378
    x54       c40                           877
    x54       c48                           172
    x54       c49                           922
    x54       c50                           667
    x54       c53                           994
    x54       c57                           145
    x54       c58                           166
    x55       obj1                            1
    x55       c9                            250
    x55       c17                           923
    x55       c40                           230
    x55       c60                           316
    x56       obj1                            1
    x56       c12                           751
    x56       c15                           384
    x56       c19                           520
    x56       c29                           100
    x56       c38                           182
    x56       c47                           485
    x56       c49                           688
    x57       obj1                            1
    x57       c7                            451
    x57       c11                           287
    x57       c12                           450
    x57       c29                           152
    x57       c33                           243
    x57       c44                           688
    x57       c57                           442
    x57       c58                           363
    x58       obj1                            1
    x58       c1                            759
    x58       c13                           602
    x58       c15                           925
    x58       c24                           323
    x58       c42                           991
    x58       c54                           732
    x58       c56                           387
    x58       c57                           141
    x59       obj1                            1
    x59       c40                           765
    x59       c41                           858
    x59       c53                           728
    x60       obj1                            1
    x60       c2                            923
    x60       c5                            981
    x60       c24                           648
    x60       c32                           192
    x60       c35                           340
    x60       c38                           988
    x60       c53                           420
    x60       c56                           541
    MARK0001  'MARKER'                 'INTEND'
RHS
    rhs       c1                           2632
    rhs       c2                           2678
    rhs       c3                            888
    rhs       c4                           1284
    rhs       c5                           1129
    rhs       c6                           1665
    rhs       c7                           2493
    rhs       c8                           1302
    rhs       c9                           2155
    rhs       c10                          1391
    rhs       c11                          1177
    rhs       c12                          1074
    rhs       c13                           989
    rhs       c14                          1975
    rhs       c15                          2158
    rhs       c16                          1262
    rhs       c17                          1911
    rhs       c18                          1016
    rhs       c19                          1843
    rhs       c20                          1314
    rhs       c21                          2041
    rhs       c22                           791
    rhs       c23                          1401
    rhs       c24                           884
    rhs       c25                          2492
    rhs       c26                          2279
    rhs       c27                          2374
    rhs       c28                           389
    rhs       c29                          2187
    rhs       c30                           827
    rhs       c31                          1734
    rhs       c32                          1531
    rhs       c33                          1643
    rhs       c34                           870
    rhs       c35                          1756
    rhs       c36                          1992
    rhs       c37                          2253
    rhs       c38                          2002
    rhs       c39                           856
    rhs       c40                          3187
    rhs       c41                          1456
    rhs       c42                          2171
    rhs       c43                           987
    rhs       c44                          1763
    rhs       c45                          1188
    rhs       c46                           960
    rhs       c47                           717
    rhs       c48                           617
    rhs       c49                          2380
    rhs       c50                          1918
    rhs       c51                          1719
    rhs       c52                          2368
    rhs       c53                          2934
    rhs       c54                          1570
    rhs       c55                          1550
    rhs       c56                          1833
    rhs       c57                          2003
    rhs       c58                          1983
    rhs       c59                          1517
    rhs       c60                          1343
BOUNDS
 LI bnd       x1        0
 LI bnd       x2        0
 LI bnd       x3        0
 LI bnd       x4        0
 LI bnd       x5        0
 LI bnd       x6        0
 LI bnd       x7        0
 LI bnd       x8        0
 LI bnd       x9        0
 LI bnd       x10       0
 LI bnd       x11       0
 LI bnd       x12       0
 LI bnd       x13       0
 LI bnd       x14       0
 LI bnd       x15       0
 LI bnd       x16       0
 LI bnd       x17       0
 LI bnd       x18       0
 LI bnd       x19       0
 LI bnd       x20       0
 LI bnd       x21       0
 LI bnd       x22       0
 LI bnd       x23       0
 LI bnd       x24       0
 LI bnd       x25       0
 LI bnd       x26       0
 LI bnd       x27       0
 LI bnd       x28       0
 LI bnd       x29       0
 LI bnd       x30       0
 LI bnd       x31       0
 LI bnd       x32       0
 LI bnd       x33       0
 LI bnd       x34       0
 LI bnd       x35       0
 LI bnd       x36       0
 LI bnd       x37       0
 LI bnd       x38       0
 LI bnd       x39       0
 LI bnd       x40       0
 LI bnd       x41       0
 LI bnd       x42       0
 LI bnd       x43       0
 LI bnd       x44       0
 LI bnd       x45       0
 LI bnd       x46       0
 LI bnd       x47       0
 LI bnd       x48       0
 LI bnd       x49       0
 LI bnd       x50       0
 LI bnd       x51       0
 LI bnd       x52       0
 LI bnd       x53       0
 LI bnd       x54       0
 LI bnd       x55       0
 LI bnd       x56       0
 LI bnd       x57       0
 LI bnd       x58       0
 LI bnd       x59       0
 LI bnd       x60       0
ENDATA
